data;


param d:= 100;
param r:=5;
param p:=0.760000;
param M:=1000;
param U:=
         1         1       -1.232626e+00
         2         1        1.231278e+00
         3         1        9.627051e-02
         4         1       -2.291986e-02
         5         1       -2.608410e-01
         6         1        3.846601e-01
         7         1        5.026097e-01
         8         1        1.757204e+00
         9         1       -2.085618e+00
        10         1        8.646501e-02
        11         1       -1.132802e+00
        12         1        4.917786e-01
        13         1        9.034406e-01
        14         1        7.448197e-01
        15         1       -1.294730e+00
        16         1       -4.208033e-01
        17         1        2.177557e-01
        18         1        9.516443e-01
        19         1       -6.393444e-01
        20         1       -1.047727e+00
        21         1       -2.381461e+00
        22         1        1.385081e-01
        23         1       -4.119016e-01
        24         1       -7.238506e-01
        25         1       -9.674547e-01
        26         1        3.026184e-01
        27         1        6.877563e-02
        28         1        6.197416e-01
        29         1        3.747600e-01
        30         1       -1.806245e+00
        31         1        8.616757e-01
        32         1       -2.486820e+00
        33         1       -1.154765e+00
        34         1        2.195186e-01
        35         1        1.306352e+00
        36         1        1.308841e+00
        37         1       -1.109669e+00
        38         1        2.154684e+00
        39         1       -1.174255e+00
        40         1        1.019190e+00
        41         1       -1.292318e+00
        42         1        9.495270e-02
        43         1        6.647256e-01
        44         1       -1.451480e+00
        45         1       -6.964242e-01
        46         1       -4.983728e-01
        47         1       -7.575297e-01
        48         1       -6.077128e-01
        49         1        2.240586e+00
        50         1       -1.550685e+00
        51         1        4.136582e-01
        52         1        5.534021e-01
        53         1        2.547067e-01
        54         1       -4.056366e-01
        55         1       -1.355275e+00
        56         1       -9.594787e-01
        57         1       -2.454089e+00
        58         1        1.176860e+00
        59         1        2.166090e+00
        60         1       -3.831831e-01
        61         1       -1.861540e+00
        62         1       -7.829589e-01
        63         1        1.884906e+00
        64         1       -9.189391e-01
        65         1       -4.165500e-01
        66         1       -8.620124e-01
        67         1       -4.112839e-01
        68         1       -1.350445e+00
        69         1       -1.693736e+00
        70         1        7.961416e-01
        71         1       -1.269907e+00
        72         1        3.675359e-01
        73         1        5.086911e-01
        74         1       -3.897493e-01
        75         1        7.627325e-01
        76         1        8.772878e-01
        77         1        9.074429e-01
        78         1       -1.670565e+00
        79         1        4.945446e-01
        80         1       -1.527831e+00
        81         1        1.416258e+00
        82         1        4.709671e-01
        83         1        3.216378e-01
        84         1       -1.344364e-01
        85         1        1.760723e-01
        86         1        4.807472e-01
        87         1        5.625731e-01
        88         1        2.548926e+00
        89         1        1.652294e+00
        90         1        2.863625e-01
        91         1       -7.175991e-01
        92         1       -3.044583e-01
        93         1       -8.299581e-04
        94         1       -9.249509e-01
        95         1       -2.632422e-01
        96         1       -1.539565e+00
        97         1       -2.614364e-01
        98         1        6.040091e-01
        99         1        4.780102e-02
       100         1       -4.810110e-01
         1         2       -3.427002e-01
         2         2        3.064229e-01
         3         2       -4.887860e-01
         4         2        2.578583e-01
         5         2       -7.032136e-02
         6         2       -1.123014e+00
         7         2        2.040999e-02
         8         2        7.046647e-01
         9         2        1.120539e-01
        10         2        1.986987e-01
        11         2        2.290985e-01
        12         2       -1.491724e-01
        13         2       -9.033118e-01
        14         2       -3.468806e-01
        15         2       -7.461441e-01
        16         2        3.581712e-01
        17         2       -1.600205e+00
        18         2        1.377287e+00
        19         2       -1.800300e+00
        20         2        1.108621e+00
        21         2        1.542839e+00
        22         2        1.016214e+00
        23         2       -2.275918e+00
        24         2        9.578036e-01
        25         2       -1.332840e+00
        26         2       -4.030530e-01
        27         2       -4.735719e-01
        28         2       -1.567653e+00
        29         2       -5.149351e-01
        30         2        8.266975e-01
        31         2        1.167302e+00
        32         2        9.943389e-01
        33         2        1.403419e-01
        34         2       -4.982565e-01
        35         2        1.959441e+00
        36         2        6.986745e-01
        37         2        6.616375e-01
        38         2       -2.561094e-01
        39         2        1.098001e+00
        40         2       -6.715716e-01
        41         2       -2.947480e-01
        42         2       -6.737640e-01
        43         2       -3.373401e-01
        44         2        6.769155e-01
        45         2        8.312196e-01
        46         2        1.014116e+00
        47         2       -3.853322e-01
        48         2        1.191326e+00
        49         2       -3.316339e-01
        50         2        5.809221e-02
        51         2       -1.879770e+00
        52         2       -9.374814e-01
        53         2       -3.027960e-01
        54         2        2.060767e-01
        55         2       -1.199424e+00
        56         2       -9.701103e-01
        57         2       -1.739119e+00
        58         2       -3.607318e-01
        59         2       -5.071425e-01
        60         2       -2.438527e-01
        61         2       -1.415419e+00
        62         2        1.489878e+00
        63         2        2.919813e-01
        64         2       -4.254871e-02
        65         2       -6.864574e-01
        66         2       -2.719384e+00
        67         2        2.692903e-01
        68         2        1.341413e-01
        69         2       -8.902590e-02
        70         2        9.712942e-01
        71         2       -2.128138e+00
        72         2       -2.216240e+00
        73         2       -2.569007e-01
        74         2       -6.364353e-01
        75         2        1.870745e+00
        76         2        7.568221e-02
        77         2        1.732467e+00
        78         2       -2.977994e-01
        79         2       -2.980799e-01
        80         2       -7.166843e-01
        81         2        8.895616e-01
        82         2       -5.189513e-01
        83         2        2.763556e-01
        84         2        6.244464e-01
        85         2       -1.665380e+00
        86         2        1.062815e+00
        87         2       -3.239169e+00
        88         2       -1.800420e+00
        89         2       -4.072470e-01
        90         2        1.536208e+00
        91         2        1.587352e+00
        92         2        1.638277e+00
        93         2       -1.108403e+00
        94         2       -5.877574e-01
        95         2       -2.065971e-01
        96         2        1.552920e-01
        97         2        1.477979e+00
        98         2       -5.474538e-01
        99         2        7.826026e-01
       100         2        6.648810e-01
         1         3       -3.361423e-01
         2         3        9.555892e-01
         3         3        3.390636e-01
         4         3        4.470573e-01
         5         3        2.119378e+00
         6         3       -1.602030e+00
         7         3       -5.480827e-02
         8         3       -1.731675e-01
         9         3       -6.288493e-02
        10         3       -9.458220e-01
        11         3       -9.865466e-02
        12         3        7.148450e-02
        13         3        6.154044e-02
        14         3        1.241608e+00
        15         3       -1.870900e+00
        16         3        3.154550e-01
        17         3       -1.909598e+00
        18         3        1.477394e+00
        19         3       -1.356827e+00
        20         3        2.031944e-01
        21         3       -7.315931e-01
        22         3       -5.478195e-01
        23         3       -8.127780e-01
        24         3        5.258845e-01
        25         3       -1.795227e-01
        26         3        1.909562e+00
        27         3        9.210931e-01
        28         3        1.114303e+00
        29         3       -5.158235e-01
        30         3        2.560082e-01
        31         3        3.477413e-01
        32         3        8.432770e-01
        33         3        6.234077e-01
        34         3        1.180016e+00
        35         3       -1.367788e+00
        36         3       -8.446033e-01
        37         3       -4.374548e-01
        38         3       -1.300454e+00
        39         3        2.200703e+00
        40         3       -3.080533e-01
        41         3        1.585139e+00
        42         3       -1.737482e+00
        43         3       -7.000984e-01
        44         3        2.566347e-01
        45         3        1.421586e+00
        46         3        6.399160e-01
        47         3       -7.635948e-01
        48         3       -8.020026e-01
        49         3       -1.025734e+00
        50         3       -4.552714e-01
        51         3        1.236337e+00
        52         3       -8.755099e-01
        53         3        5.864920e-01
        54         3       -4.487138e-01
        55         3        2.883237e-01
        56         3        1.631665e-01
        57         3        1.611656e-01
        58         3        1.643748e+00
        59         3       -1.185342e+00
        60         3        9.907835e-01
        61         3       -3.254533e-01
        62         3       -1.002541e+00
        63         3        6.316952e-01
        64         3        8.683602e-01
        65         3        7.014707e-01
        66         3       -2.172737e+00
        67         3        1.174063e+00
        68         3        1.614086e+00
        69         3        8.586346e-01
        70         3       -3.824319e-01
        71         3       -1.289333e+00
        72         3        2.886295e-01
        73         3        6.203951e-01
        74         3       -1.791728e+00
        75         3       -6.257951e-01
        76         3        1.109677e+00
        77         3        5.123596e-01
        78         3       -8.595708e-01
        79         3        1.369014e+00
        80         3       -4.597430e-01
        81         3       -7.431427e-02
        82         3       -1.476258e+00
        83         3        7.164459e-01
        84         3        9.703941e-01
        85         3        3.967648e-01
        86         3       -7.874198e-01
        87         3        2.074868e-01
        88         3       -1.057977e+00
        89         3       -7.777192e-01
        90         3        5.758142e-02
        91         3       -1.703358e-02
        92         3        3.275801e-02
        93         3       -1.837578e+00
        94         3        9.985592e-01
        95         3       -1.075718e+00
        96         3        1.362654e+00
        97         3        8.888980e-02
        98         3       -7.147295e-01
        99         3        2.156294e+00
       100         3       -1.406183e-01
         1         4       -2.343428e-01
         2         4       -4.650244e-01
         3         4       -5.547911e-01
         4         4        6.533880e-01
         5         4       -1.088465e+00
         6         4        1.772890e+00
         7         4       -1.439143e+00
         8         4        1.295901e+00
         9         4       -8.805742e-01
        10         4        6.337974e-01
        11         4        2.654157e-01
        12         4       -2.906313e-01
        13         4        2.450406e-01
        14         4       -8.386843e-01
        15         4       -9.724566e-01
        16         4       -8.552787e-01
        17         4        1.024456e-01
        18         4        1.670547e+00
        19         4        1.889464e-02
        20         4       -7.553601e-01
        21         4        8.024339e-01
        22         4        4.382695e-01
        23         4        1.308331e+00
        24         4       -6.461483e-02
        25         4       -7.764582e-01
        26         4        4.598789e-02
        27         4        1.835693e-01
        28         4        8.527869e-01
        29         4       -1.199647e-01
        30         4       -2.067441e-01
        31         4        9.008644e-01
        32         4        3.207441e-01
        33         4        1.248098e-01
        34         4       -4.545850e-01
        35         4        7.106020e-01
        36         4       -3.206892e-01
        37         4       -1.609206e+00
        38         4       -1.727834e+00
        39         4       -7.778395e-01
        40         4        6.463858e-01
        41         4        6.387456e-04
        42         4       -3.156961e-02
        43         4       -2.651592e+00
        44         4        7.597613e-01
        45         4       -1.114969e+00
        46         4       -8.909847e-01
        47         4       -1.231526e+00
        48         4       -9.820001e-02
        49         4       -1.998669e-01
        50         4        8.159611e-01
        51         4       -1.667368e+00
        52         4       -4.651892e-01
        53         4       -3.244434e-01
        54         4        9.647188e-01
        55         4       -1.665143e-01
        56         4        1.320667e+00
        57         4        8.840143e-01
        58         4        3.863585e-01
        59         4       -3.420213e-01
        60         4        7.815529e-01
        61         4       -1.226454e-01
        62         4       -1.107276e+00
        63         4       -1.538565e-01
        64         4        1.694390e-01
        65         4        1.137744e-01
        66         4        7.059197e-01
        67         4        1.516545e-01
        68         4        1.205338e+00
        69         4       -1.512646e+00
        70         4        1.164447e+00
        71         4        7.453803e-01
        72         4        8.601148e-01
        73         4        2.615978e-01
        74         4       -4.320474e-01
        75         4        1.254816e+00
        76         4        2.863366e-01
        77         4        4.462186e-01
        78         4        8.786736e-01
        79         4       -6.712898e-01
        80         4       -2.977032e-01
        81         4        9.917392e-01
        82         4       -6.773246e-01
        83         4        8.154428e-02
        84         4        6.641168e-02
        85         4        5.835839e-01
        86         4        9.149846e-01
        87         4       -6.151941e-01
        88         4        1.010761e+00
        89         4       -1.154417e+00
        90         4       -9.248687e-01
        91         4        3.339747e-01
        92         4       -1.417412e+00
        93         4       -8.089051e-01
        94         4        9.457896e-01
        95         4        8.342651e-01
        96         4        1.154676e-02
        97         4        1.042497e+00
        98         4       -8.942885e-01
        99         4        1.276682e+00
       100         4        2.943923e-01
         1         5       -1.048289e+00
         2         5        1.883677e-02
         3         5       -4.732610e-01
         4         5        1.953708e+00
         5         5       -9.561654e-01
         6         5       -1.383997e+00
         7         5        6.255212e-01
         8         5        5.324741e-01
         9         5       -3.433501e-01
        10         5       -8.534588e-01
        11         5        4.320939e-01
        12         5        6.573016e-01
        13         5       -6.687598e-01
        14         5       -1.647873e+00
        15         5        7.161773e-01
        16         5        1.051318e+00
        17         5        4.596986e-01
        18         5        1.737539e+00
        19         5       -1.136610e+00
        20         5        1.762310e+00
        21         5       -1.350113e+00
        22         5       -3.332413e-02
        23         5       -4.887360e-01
        24         5       -1.929518e+00
        25         5       -7.598896e-02
        26         5       -1.407086e-01
        27         5        9.083871e-01
        28         5        5.804630e-01
        29         5        7.084004e-02
        30         5       -5.741897e-01
        31         5        6.169222e-01
        32         5        8.833276e-02
        33         5       -8.374308e-01
        34         5       -1.037089e-01
        35         5        8.566840e-01
        36         5        2.467842e+00
        37         5       -2.079579e+00
        38         5       -8.476247e-01
        39         5        3.091176e-01
        40         5       -1.219466e+00
        41         5       -3.202208e-01
        42         5       -3.117095e-01
        43         5       -1.497999e-01
        44         5       -4.706017e-01
        45         5       -6.724641e-01
        46         5       -1.615987e+00
        47         5        1.138731e+00
        48         5       -9.382719e-01
        49         5       -6.066600e-02
        50         5        1.385703e-02
        51         5       -3.256701e-01
        52         5        2.401750e+00
        53         5       -8.985153e-01
        54         5        2.195679e+00
        55         5       -1.026059e+00
        56         5       -5.861452e-02
        57         5       -3.790723e-01
        58         5        1.258598e-01
        59         5       -8.629770e-01
        60         5       -2.465719e-01
        61         5        4.842634e-01
        62         5        1.439373e+00
        63         5        2.002293e-01
        64         5        1.548533e+00
        65         5        6.247540e-01
        66         5        1.634378e+00
        67         5       -9.601649e-01
        68         5        1.313141e+00
        69         5       -2.277631e+00
        70         5        1.206493e+00
        71         5        1.500664e+00
        72         5       -5.671020e-01
        73         5       -1.884344e-01
        74         5        7.980313e-01
        75         5        4.418866e-01
        76         5        2.345590e-01
        77         5       -2.245015e-01
        78         5        1.247138e-01
        79         5        4.276148e-01
        80         5       -1.182232e-01
        81         5       -2.450365e-01
        82         5       -7.759305e-01
        83         5        6.954176e-01
        84         5       -3.410658e-01
        85         5        2.555751e-01
        86         5        7.568364e-01
        87         5        4.610960e-01
        88         5       -2.032702e+00
        89         5        3.928234e-01
        90         5       -6.585638e-01
        91         5        3.063462e-01
        92         5       -9.262001e-01
        93         5       -5.333705e-01
        94         5        1.108926e+00
        95         5        1.052021e+00
        96         5        1.659079e-01
        97         5        4.181998e-01
        98         5        9.416040e-02
        99         5       -1.168473e+00
       100         5       -9.242458e-01
;

param theta:=
    1        8.858488e-02
    2       -2.279759e+00
    3       -2.040557e-01
    4        1.581527e+00
    5       -1.066799e+00
;
param X_true:=
    1        1.488369e+00
    2       -1.540035e+00
    3        6.811119e-01
    4       -1.731973e+00
    5       -9.966631e-01
    6        7.201502e+00
    7       -2.934172e+00
    8        6.599063e-02
    9       -1.453745e+00
   10        1.660512e+00
   11       -6.437030e-01
   12       -7.917959e-01
   13        3.227778e+00
   14        1.034974e+00
   15       -3.338808e-01
   16       -3.392383e+00
   17        3.728651e+00
   18       -2.568643e+00
   19        5.566900e+00
   20       -5.736320e+00
   21       -8.696055e-01
   22       -1.463983e+00
   23        7.908452e+00
   24       -3.987754e-01
   25        1.842560e+00
   26        7.788531e-01
   27        2.190211e-01
   28        4.130860e+00
   29        1.047083e+00
   30       -1.811344e+00
   31       -1.889186e+00
   32       -2.246191e+00
   33        5.413105e-01
   34        3.062602e-01
   35       -3.862299e+00
   36       -4.444392e+00
   37       -1.843918e+00
   38       -7.882665e-01
   39       -4.616206e+00
   40        4.007369e+00
   41        5.766396e-01
   42        2.181578e+00
   43       -3.062960e+00
   44       -2.053044e-02
   45       -3.292725e+00
   46       -2.171851e+00
   47       -2.195314e+00
   48       -1.760476e+00
   49        9.124579e-01
   50        1.098779e+00
   51        1.780222e+00
   52       -9.329865e-01
   53        1.038607e+00
   54       -1.230796e+00
   55        3.386760e+00
   56        4.244528e+00
   57        5.516978e+00
   58        1.067987e+00
   59        1.969629e+00
   60        1.818896e+00
   61        2.417743e+00
   62       -6.548057e+00
   63       -1.084507e+00
   64       -1.545599e+00
   65        8.983685e-01
   66        5.939417e+00
   67        3.742243e-01
   68       -2.493861e-01
   69       -8.480630e-02
   70       -1.511235e+00
   71        4.580175e+00
   72        6.991435e+00
   73        1.118885e+00
   74        2.473718e-01
   75       -2.556464e+00
   76       -1.186370e-01
   77       -3.028566e+00
   78        1.962926e+00
   79       -1.073838e+00
   80        1.247633e+00
   81       -5.749571e-02
   82        1.282599e+00
   83       -1.360634e+00
   84       -1.164630e+00
   85        4.381607e+00
   86       -1.580017e+00
   87        5.927180e+00
   88        8.313239e+00
   89       -1.011315e+00
   90       -4.248716e+00
   91       -3.477494e+00
   92       -5.022139e+00
   93        2.191480e+00
   94        1.367037e+00
   95        8.642968e-01
   96       -9.271968e-01
   97       -2.208132e+00
   98       -6.737820e-02
   99        1.045719e+00
  100       -7.811059e-02
;
param X:=
    1       -1.812741e-01
    2       -1.540035e+00
    3       -6.503962e-01
    4       -8.473943e-01
    5       -1.089552e+00
    6        7.201502e+00
    7       -1.327300e+00
    8       -7.460737e-01
    9       -4.653104e-02
   10        1.007568e+00
   11       -6.437030e-01
   12       -8.627716e-01
   13        3.227778e+00
   14       -6.913852e-01
   15       -4.570407e-01
   16        6.488594e-01
   17        3.728651e+00
   18       -7.714023e-01
   19       -5.242909e-01
   20        1.100683e+00
   21       -4.204705e-01
   22        1.043017e+00
   23       -4.575375e-01
   24       -3.987754e-01
   25       -6.262495e-01
   26       -2.006759e-01
   27       -4.652763e-01
   28        1.891252e+00
   29        1.047083e+00
   30       -1.811344e+00
   31       -8.853173e-02
   32       -3.565458e-01
   33        5.413105e-01
   34       -1.951385e+00
   35       -9.390223e-02
   36        5.025690e-01
   37       -2.183438e+00
   38       -9.922587e-01
   39        7.706148e-02
   40        1.422085e+00
   41       -3.902716e-01
   42       -4.898149e-01
   43        4.622130e-01
   44       -2.861263e-01
   45       -3.292725e+00
   46        1.041891e+00
   47       -2.195314e+00
   48       -1.717312e+00
   49        9.124579e-01
   50        1.098779e+00
   51       -2.988949e-02
   52       -9.329865e-01
   53       -1.113618e+00
   54       -1.952974e+00
   55        3.386760e+00
   56        1.919068e-01
   57        1.231511e+00
   58        1.067987e+00
   59       -6.054675e-01
   60       -2.438668e-01
   61        7.636595e-01
   62        5.411545e-01
   63        7.534496e-01
   64       -4.576937e-01
   65       -5.197724e-01
   66       -1.075341e+00
   67        3.742243e-01
   68       -8.821819e-01
   69       -1.071162e+00
   70       -4.653702e-01
   71        1.686576e-01
   72        2.913391e+00
   73        1.226922e+00
   74        1.000211e+00
   75       -2.556464e+00
   76       -1.186370e-01
   77       -9.850236e-01
   78        1.962926e+00
   79        2.741643e+00
   80       -4.395587e-01
   81        2.035105e+00
   82       -2.531783e+00
   83        1.962423e+00
   84        2.385097e+00
   85        4.381607e+00
   86        7.173504e-01
   87        5.927180e+00
   88       -1.048229e+00
   89       -5.469306e-01
   90        8.499364e-01
   91        1.536101e+00
   92       -3.421997e-01
   93        5.176864e-01
   94        1.367037e+00
   95        8.642968e-01
   96       -1.069288e+00
   97        6.658897e-01
   98       -9.427619e-01
   99        5.198135e-01
  100       -1.567509e-01
;
param outliervec:=
    1    1
    2    0
    3    1
    4    1
    5    1
    6    0
    7    1
    8    1
    9    1
   10    1
   11    0
   12    1
   13    0
   14    1
   15    1
   16    1
   17    0
   18    1
   19    1
   20    1
   21    1
   22    1
   23    1
   24    0
   25    1
   26    1
   27    1
   28    1
   29    0
   30    0
   31    1
   32    1
   33    0
   34    1
   35    1
   36    1
   37    1
   38    1
   39    1
   40    1
   41    1
   42    1
   43    1
   44    1
   45    0
   46    1
   47    0
   48    1
   49    0
   50    0
   51    1
   52    0
   53    1
   54    1
   55    0
   56    1
   57    1
   58    0
   59    1
   60    1
   61    1
   62    1
   63    1
   64    1
   65    1
   66    1
   67    0
   68    1
   69    1
   70    1
   71    1
   72    1
   73    1
   74    1
   75    0
   76    0
   77    1
   78    0
   79    1
   80    1
   81    1
   82    1
   83    1
   84    1
   85    0
   86    1
   87    0
   88    1
   89    1
   90    1
   91    1
   92    1
   93    1
   94    0
   95    0
   96    1
   97    1
   98    1
   99    1
  100    1
;